networks/zoo_64_397/zoo_64_397.txt
Number of groups: 32
Flow 2: {1 4} {4 23} {23 31} {31 12} {12 44} 
Flow 3: {2 7} {7 39} 
Flow 20: {7 2} {2 34} 
Flow 23: {10 9} {9 41} 
Flow 25: {12 11} {11 43} 
Flow 28: {31 14} {14 46} 
Flow 41: {31 30} {30 62} 
Flow 121: {8 7} {7 31} {31 63} 
Flow 125: {18 17} {17 16} {16 15} {15 47} 
Flow 127: {9 10} {10 18} 
Flow 132: {4 24} {24 3} {3 35} 
Flow 159: {11 12} {12 29} {29 28} {28 13} {13 45} 
Flow 181: {16 48} 
Flow 182: {17 49} 
Flow 210: {29 12} {12 27} {27 26} {26 22} {22 54} 
Flow 213: {26 15} {15 25} {25 57} 
Flow 221: {14 31} {31 23} {23 4} {4 36} 
Flow 260: {19 10} {10 6} {6 5} {5 7} 
Flow 263: {20 31} {31 7} 
Flow 266: {23 55} 
Flow 271: {18 10} {10 42} 
Flow 277: {21 15} {15 26} {26 27} {27 59} 
Flow 285: {22 26} {26 58} 
Flow 293: {24 4} {4 1} {1 33} 
Flow 313: {3 13} {13 28} {28 60} 
Flow 314: {28 29} {29 61} 
Flow 325: {25 15} {15 16} {16 17} {17 18} {18 50} 
Flow 359: {27 12} {12 31} {31 32} {32 64} 
Flow 365: {13 3} {3 24} {24 56} 
Flow 374: {7 5} {5 37} 
Flow 375: {5 6} {6 38} 
Flow 387: {6 10} {10 19} {19 51} 
Time taken running everything: 5 seconds
