networks/zoo_64_397/zoo_64_397.sol
<?xml version = "1.0" encoding="UTF-8" standalone="yes"?>
<CPLEXSolution version="1.2">
 <header
   problemName="networks/zoo_64_397/zoo_64_397.lp"
   solutionName="incumbent"
   solutionIndex="-1"
   objectiveValue="32"
   solutionTypeValue="3"
   solutionTypeString="primal"
   solutionStatusValue="101"
   solutionStatusString="integer optimal solution"
   solutionMethodString="mip"
   primalFeasible="1"
   dualFeasible="1"
   MIPNodes="0"
   MIPIterations="11416"
   writeLevel="3"/>
 <quality
   epInt="1.0000000000000001e-05"
   epRHS="9.9999999999999995e-07"
   maxIntInfeas="0"
   maxPrimalInfeas="1.7763568394002505e-15"
   maxX="4"
   maxSlack="10"/>
 <variables>
  <variable name="Y(2,12)" index="72" value="1"/>
  <variable name="Y(3,7)" index="128" value="1"/>
  <variable name="Y(20,2)" index="1160" value="1"/>
  <variable name="Y(23,9)" index="1350" value="1"/>
  <variable name="Y(25,11)" index="1474" value="1"/>
  <variable name="Y(28,14)" index="1660" value="1"/>
  <variable name="Y(41,30)" index="2469" value="1"/>
  <variable name="Y(121,31)" index="7350" value="1"/>
  <variable name="Y(125,15)" index="7578" value="1"/>
  <variable name="Y(127,10)" index="7695" value="1"/>
  <variable name="Y(132,3)" index="7993" value="1"/>
  <variable name="Y(159,13)" index="9650" value="1"/>
  <variable name="Y(181,16)" index="10995" value="1"/>
  <variable name="Y(182,17)" index="11057" value="1"/>
  <variable name="Y(210,22)" index="12770" value="1"/>
  <variable name="Y(213,25)" index="12956" value="1"/>
  <variable name="Y(221,4)" index="13423" value="1"/>
  <variable name="Y(260,5)" index="15803" value="1"/>
  <variable name="Y(263,31)" index="16012" value="1"/>
  <variable name="Y(266,23)" index="16187" value="1"/>
  <variable name="Y(271,10)" index="16479" value="1"/>
  <variable name="Y(277,27)" index="16862" value="1"/>
  <variable name="Y(285,26)" index="17349" value="1"/>
  <variable name="Y(293,1)" index="17812" value="1"/>
  <variable name="Y(313,28)" index="19059" value="1"/>
  <variable name="Y(314,29)" index="19121" value="1"/>
  <variable name="Y(325,18)" index="19781" value="1"/>
  <variable name="Y(359,32)" index="21869" value="1"/>
  <variable name="Y(365,24)" index="22227" value="1"/>
  <variable name="Y(374,5)" index="22757" value="1"/>
  <variable name="Y(375,6)" index="22819" value="1"/>
  <variable name="Y(387,19)" index="23564" value="1"/>
  <variable name="X(1,4,2)" index="24218" value="1"/>
  <variable name="X(1,33,293)" index="24906" value="1"/>
  <variable name="X(2,7,3)" index="25013" value="1"/>
  <variable name="X(2,34,20)" index="25427" value="1"/>
  <variable name="X(3,13,313)" index="26117" value="1"/>
  <variable name="X(3,24,365)" index="26566" value="1"/>
  <variable name="X(3,35,132)" index="26730" value="1"/>
  <variable name="X(4,1,293)" index="27288" value="1"/>
  <variable name="X(4,23,2)" index="27394" value="1"/>
  <variable name="X(4,24,132)" index="27921" value="1"/>
  <variable name="X(4,36,221)" index="28407" value="1"/>
  <variable name="X(5,6,375)" index="28958" value="1"/>
  <variable name="X(5,7,260)" index="29240" value="1"/>
  <variable name="X(5,37,374)" index="29751" value="1"/>
  <variable name="X(6,5,260)" index="30034" value="1"/>
  <variable name="X(6,10,387)" index="30558" value="1"/>
  <variable name="X(6,38,375)" index="30943" value="1"/>
  <variable name="X(7,2,20)" index="30985" value="1"/>
  <variable name="X(7,5,374)" index="31736" value="1"/>
  <variable name="X(7,31,121)" index="31880" value="1"/>
  <variable name="X(7,39,3)" index="32159" value="1"/>
  <variable name="X(8,7,121)" index="32674" value="1"/>
  <variable name="X(9,10,127)" index="33077" value="1"/>
  <variable name="X(9,41,23)" index="33370" value="1"/>
  <variable name="X(10,6,260)" index="34004" value="1"/>
  <variable name="X(10,9,23)" index="34164" value="1"/>
  <variable name="X(10,18,127)" index="34665" value="1"/>
  <variable name="X(10,19,387)" index="35322" value="1"/>
  <variable name="X(10,42,271)" index="35603" value="1"/>
  <variable name="X(11,12,159)" index="35888" value="1"/>
  <variable name="X(11,43,25)" index="36151" value="1"/>
  <variable name="X(12,11,25)" index="36548" value="1"/>
  <variable name="X(12,27,210)" index="37130" value="1"/>
  <variable name="X(12,29,159)" index="37476" value="1"/>
  <variable name="X(12,31,359)" index="38073" value="1"/>
  <variable name="X(12,44,2)" index="38113" value="1"/>
  <variable name="X(13,3,365)" index="38873" value="1"/>
  <variable name="X(13,28,313)" index="39218" value="1"/>
  <variable name="X(13,45,159)" index="39461" value="1"/>
  <variable name="X(14,31,221)" index="39920" value="1"/>
  <variable name="X(14,46,28)" index="40124" value="1"/>
  <variable name="X(15,16,325)" index="40818" value="1"/>
  <variable name="X(15,25,213)" index="41103" value="1"/>
  <variable name="X(15,26,277)" index="41564" value="1"/>
  <variable name="X(15,47,125)" index="41809" value="1"/>
  <variable name="X(16,15,125)" index="42206" value="1"/>
  <variable name="X(16,17,325)" index="42803" value="1"/>
  <variable name="X(16,48,181)" index="43056" value="1"/>
  <variable name="X(17,16,125)" index="43397" value="1"/>
  <variable name="X(17,18,325)" index="43994" value="1"/>
  <variable name="X(17,49,182)" index="44248" value="1"/>
  <variable name="X(18,10,271)" index="44734" value="1"/>
  <variable name="X(18,17,125)" index="44985" value="1"/>
  <variable name="X(18,50,325)" index="45582" value="1"/>
  <variable name="X(19,10,260)" index="45914" value="1"/>
  <variable name="X(19,51,387)" index="46438" value="1"/>
  <variable name="X(20,31,263)" index="46711" value="1"/>
  <variable name="X(21,15,277)" index="47122" value="1"/>
  <variable name="X(22,26,285)" index="47527" value="1"/>
  <variable name="X(22,54,210)" index="47849" value="1"/>
  <variable name="X(23,4,221)" index="48257" value="1"/>
  <variable name="X(23,31,2)" index="48435" value="1"/>
  <variable name="X(23,55,266)" index="49096" value="1"/>
  <variable name="X(24,3,132)" index="49359" value="1"/>
  <variable name="X(24,4,293)" index="49917" value="1"/>
  <variable name="X(24,56,365)" index="50386" value="1"/>
  <variable name="X(25,15,325)" index="50743" value="1"/>
  <variable name="X(25,57,213)" index="51028" value="1"/>
  <variable name="X(26,15,213)" index="51425" value="1"/>
  <variable name="X(26,22,210)" index="51819" value="1"/>
  <variable name="X(26,27,277)" index="52283" value="1"/>
  <variable name="X(26,58,285)" index="52688" value="1"/>
  <variable name="X(27,12,359)" index="53159" value="1"/>
  <variable name="X(27,26,210)" index="53407" value="1"/>
  <variable name="X(27,59,277)" index="53871" value="1"/>
  <variable name="X(28,13,159)" index="54150" value="1"/>
  <variable name="X(28,29,314)" index="54702" value="1"/>
  <variable name="X(28,60,313)" index="55098" value="1"/>
  <variable name="X(29,12,210)" index="55392" value="1"/>
  <variable name="X(29,28,159)" index="55738" value="1"/>
  <variable name="X(29,61,314)" index="56290" value="1"/>
  <variable name="X(30,62,41)" index="56414" value="1"/>
  <variable name="X(31,7,263)" index="57033" value="1"/>
  <variable name="X(31,12,2)" index="57169" value="1"/>
  <variable name="X(31,14,28)" index="57592" value="1"/>
  <variable name="X(31,23,221)" index="58182" value="1"/>
  <variable name="X(31,30,41)" index="58399" value="1"/>
  <variable name="X(31,32,359)" index="59114" value="1"/>
  <variable name="X(31,63,121)" index="59273" value="1"/>
  <variable name="X(32,64,359)" index="59908" value="1"/>
  <variable name="C(2,4)" index="59953" value="1"/>
  <variable name="C(2,23)" index="59954" value="2"/>
  <variable name="C(2,31)" index="59955" value="3"/>
  <variable name="C(2,12)" index="59956" value="4"/>
  <variable name="C(3,7)" index="59958" value="1"/>
  <variable name="C(20,2)" index="60042" value="1"/>
  <variable name="C(23,9)" index="60057" value="1"/>
  <variable name="C(25,11)" index="60069" value="1"/>
  <variable name="C(28,14)" index="60081" value="1"/>
  <variable name="C(41,30)" index="60157" value="1"/>
  <variable name="C(121,7)" index="60542" value="1"/>
  <variable name="C(121,31)" index="60543" value="2"/>
  <variable name="C(125,17)" index="60567" value="1"/>
  <variable name="C(125,16)" index="60568" value="2"/>
  <variable name="C(125,15)" index="60569" value="3"/>
  <variable name="C(127,10)" index="60578" value="1"/>
  <variable name="C(132,24)" index="60618" value="1"/>
  <variable name="C(132,3)" index="60619" value="2"/>
  <variable name="C(159,12)" index="60764" value="1"/>
  <variable name="C(159,29)" index="60765" value="1.9999999999999982"/>
  <variable name="C(159,28)" index="60766" value="3"/>
  <variable name="C(159,13)" index="60767" value="4"/>
  <variable name="C(210,12)" index="61018" value="1"/>
  <variable name="C(210,27)" index="61019" value="2"/>
  <variable name="C(210,26)" index="61020" value="3"/>
  <variable name="C(210,22)" index="61021" value="4"/>
  <variable name="C(213,15)" index="61036" value="1"/>
  <variable name="C(213,25)" index="61037" value="2"/>
  <variable name="C(221,31)" index="61072" value="1"/>
  <variable name="C(221,23)" index="61073" value="2"/>
  <variable name="C(221,4)" index="61074" value="3"/>
  <variable name="C(260,10)" index="61279" value="1"/>
  <variable name="C(260,6)" index="61280" value="2"/>
  <variable name="C(260,5)" index="61281" value="3"/>
  <variable name="C(263,31)" index="61296" value="1"/>
  <variable name="C(271,10)" index="61337" value="1"/>
  <variable name="C(277,15)" index="61365" value="1"/>
  <variable name="C(277,26)" index="61366" value="2"/>
  <variable name="C(277,27)" index="61367" value="3"/>
  <variable name="C(285,26)" index="61408" value="1"/>
  <variable name="C(293,4)" index="61436" value="1"/>
  <variable name="C(293,1)" index="61437" value="2"/>
  <variable name="C(313,13)" index="61560" value="1"/>
  <variable name="C(313,28)" index="61561" value="2"/>
  <variable name="C(314,29)" index="61566" value="1"/>
  <variable name="C(325,15)" index="61627" value="1"/>
  <variable name="C(325,16)" index="61628" value="2"/>
  <variable name="C(325,17)" index="61629" value="3"/>
  <variable name="C(325,18)" index="61630" value="4"/>
  <variable name="C(359,12)" index="61790" value="1"/>
  <variable name="C(359,31)" index="61791" value="2"/>
  <variable name="C(359,32)" index="61792" value="3"/>
  <variable name="C(365,3)" index="61816" value="1"/>
  <variable name="C(365,24)" index="61817" value="2"/>
  <variable name="C(374,5)" index="61847" value="1"/>
  <variable name="C(375,6)" index="61851" value="1"/>
  <variable name="C(387,10)" index="61905" value="1"/>
  <variable name="C(387,19)" index="61906" value="2"/>
 </variables>
</CPLEXSolution>
